100 8
606 399
908 69
23 416
382 451
574 419
873 703
815 310
253 807
809 423
584 714
758 674
837 272
817 608
654 465
87 595
612 498
762 268
767 834
154 422
590 357
438 751
582 157
832 570
698 412
276 568
822 76
820 323
762 85
532 158
556 371
646 567
654 425
380 793
699 207
857 680
914 672
600 865
121 554
572 873
648 93
572 271
573 537
628 331
755 858
298 526
754 561
668 358
899 739
902 126
693 526
713 537
663 247
47 513
846 251
932 773
925 282
772 298
578 244
30 564
670 408
701 510
886 270
716 365
928 534
796 633
574 369
220 603
776 539
247 428
643 527
665 171
37 391
910 766
574 877
860 674
532 283
889 143
18 251
663 381
807 146
908 844
521 480
894 669
660 649
532 477
906 307
661 105
778 160
327 549
84 500
91 478
860 694
498 832
546 143
821 194
609 447
468 896
556 735
698 424
771 618
